NAME: random-65-23198
TYPE: TSP
COMMENT: size=65 seed=23198
DIMENSION: 132
EDGE_WEIGHT_TYPE: EUC_2D
NODE_COORD_SECTION
+0 786 305
-0 786 305
+1 867 743
-1 835 888
+2 328 481
-2 408 967
+3 844 422
-3 146 905
+4 603 176
-4 902 326
+5 446 105
-5 421 238
+6 917 453
-6 551 701
+7 18 228
-7 507 941
+8 440 519
-8 855 76
+9 117 593
-9 112 233
+10 156 985
-10 506 556
+11 919 668
-11 300 637
+12 490 105
-12 891 240
+13 979 993
-13 166 306
+14 510 327
-14 63 406
+15 14 27
-15 230 952
+16 62 921
-16 868 496
+17 202 364
-17 99 821
+18 461 468
-18 287 394
+19 758 961
-19 895 513
+20 429 136
-20 446 608
+21 139 822
-21 324 276
+22 603 393
-22 601 772
+23 116 454
-23 232 693
+24 95 639
-24 915 20
+25 990 68
-25 144 952
+26 571 17
-26 788 4
+27 706 731
-27 768 112
+28 855 689
-28 465 153
+29 334 57
-29 51 401
+30 310 543
-30 969 914
+31 129 162
-31 595 385
+32 376 674
-32 844 748
+33 147 861
-33 216 440
+34 586 942
-34 71 493
+35 37 77
-35 177 194
+36 898 566
-36 737 154
+37 674 384
-37 148 539
+38 629 611
-38 857 895
+39 689 251
-39 450 985
+40 751 544
-40 917 855
+41 398 313
-41 789 894
+42 55 586
-42 927 397
+43 588 110
-43 856 495
+44 10 784
-44 305 892
+45 354 642
-45 901 758
+46 854 759
-46 253 235
+47 460 570
-47 508 825
+48 761 815
-48 252 951
+49 673 512
-49 865 339
+50 958 427
-50 311 828
+51 707 353
-51 69 883
+52 309 818
-52 928 208
+53 774 164
-53 321 931
+54 959 316
-54 396 776
+55 892 698
-55 54 384
+56 663 648
-56 316 704
+57 125 790
-57 14 918
+58 766 669
-58 281 925
+59 233 108
-59 586 729
+60 137 690
-60 575 524
+61 584 214
-61 329 123
+62 280 732
-62 701 384
+63 804 222
-63 510 672
+64 890 549
-64 771 31
+65 47 522
-65 911 928
PRECEDENCE_SECTION
+0 -0
+1 -1
+2 -2
+3 -3
+4 -4
+5 -5
+6 -6
+7 -7
+8 -8
+9 -9
+10 -10
+11 -11
+12 -12
+13 -13
+14 -14
+15 -15
+16 -16
+17 -17
+18 -18
+19 -19
+20 -20
+21 -21
+22 -22
+23 -23
+24 -24
+25 -25
+26 -26
+27 -27
+28 -28
+29 -29
+30 -30
+31 -31
+32 -32
+33 -33
+34 -34
+35 -35
+36 -36
+37 -37
+38 -38
+39 -39
+40 -40
+41 -41
+42 -42
+43 -43
+44 -44
+45 -45
+46 -46
+47 -47
+48 -48
+49 -49
+50 -50
+51 -51
+52 -52
+53 -53
+54 -54
+55 -55
+56 -56
+57 -57
+58 -58
+59 -59
+60 -60
+61 -61
+62 -62
+63 -63
+64 -64
+65 -65
EOF
